NAME: PointSet_Angle_45_6
TYPE: TSP
COMMENT: Points chosen discrete uniformly at random out of ${0, \ldots, 500}^2$.
DIMENSION: 45
EDGE_WEIGHT_TYPE: EUC_2D
NODE_COORD_SECTION
1 498 259
2 166 209
3 416 17
4 391 90
5 205 247
6 92 184
7 27 47
8 211 224
9 72 465
10 15 274
11 390 368
12 286 486
13 353 440
14 276 193
15 467 360
16 496 210
17 365 408
18 420 281
19 171 56
20 117 377
21 50 210
22 307 324
23 3 17
24 48 76
25 483 63
26 96 118
27 177 129
28 103 29
29 68 125
30 469 282
31 485 464
32 492 96
33 117 411
34 123 289
35 214 240
36 165 264
37 196 218
38 87 200
39 482 135
40 22 210
41 446 365
42 328 369
43 494 431
44 399 62
45 303 113
EOF
